p cnf 123 568
c p weight 18 0 0
c p weight -18 1 0
c p weight 19 1.0 0
c p weight -19 1 0
c p weight 27 0 0
c p weight -27 1 0
c p weight 28 1.0 0
c p weight -28 1 0
c p weight 36 0 0
c p weight -36 1 0
c p weight 37 1.0 0
c p weight -37 1 0
c p weight 44 0 0
c p weight -44 1 0
c p weight 45 1.0 0
c p weight -45 1 0
c p weight 53 0 0
c p weight -53 1 0
c p weight 54 1.0 0
c p weight -54 1 0
c p weight 62 0 0
c p weight -62 1 0
c p weight 63 1.0 0
c p weight -63 1 0
c p weight 74 0 0
c p weight -74 1 0
c p weight 75 1.0 0
c p weight -75 1 0
c p weight 86 0 0
c p weight -86 1 0
c p weight 87 1.0 0
c p weight -87 1 0
c p weight 97 0 0
c p weight -97 1 0
c p weight 98 1.0 0
c p weight -98 1 0
c p weight 109 0 0
c p weight -109 1 0
c p weight 110 1.0 0
c p weight -110 1 0
c p weight 120 0 0
c p weight -120 1 0
c p weight 121 1.0 0
c p weight -121 1 0
14 -13 1 0
14 -13 2 0
-14 13 1 0
-14 13 2 0
14 13 -1 -2 0
-14 -13 -1 -2 0
15 1 -2 0
15 -1 2 0
-15 1 2 0
-15 -1 -2 0
16 17 -14 0
16 -14 15 0
-16 17 14 0
-16 14 15 0
16 -14 -1 0
-16 14 -1 0
16 -17 14 1 -15 0
-16 -17 -14 1 -15 0
17 -1 15 0
-17 1 15 0
-18 15 0
17 -18 -1 0
-17 -18 1 0
17 18 1 -15 0
-17 18 -1 -15 0
-19 15 0
17 -19 1 0
-17 -19 -1 0
17 19 -1 -15 0
-17 19 1 -15 0
20 -16 17 0
20 -16 15 0
-20 16 17 0
-20 16 15 0
20 16 -17 -15 0
-20 -16 -17 -15 0
21 17 -15 0
21 -17 15 0
-21 17 15 0
-21 -17 -15 0
22 20 -21 0
22 -20 21 0
-22 20 21 0
-22 -20 -21 0
23 -22 3 0
23 -22 4 0
-23 22 3 0
-23 22 4 0
23 22 -3 -4 0
-23 -22 -3 -4 0
24 3 -4 0
24 -3 4 0
-24 3 4 0
-24 -3 -4 0
25 26 -23 0
25 -23 24 0
-25 26 23 0
-25 23 24 0
25 -23 -3 0
-25 23 -3 0
25 -26 23 3 -24 0
-25 -26 -23 3 -24 0
26 -3 24 0
-26 3 24 0
-27 24 0
26 -27 -3 0
-26 -27 3 0
26 27 3 -24 0
-26 27 -3 -24 0
-28 24 0
26 -28 3 0
-26 -28 -3 0
26 28 -3 -24 0
-26 28 3 -24 0
29 -25 26 0
29 -25 24 0
-29 25 26 0
-29 25 24 0
29 25 -26 -24 0
-29 -25 -26 -24 0
30 26 -24 0
30 -26 24 0
-30 26 24 0
-30 -26 -24 0
31 29 -30 0
31 -29 30 0
-31 29 30 0
-31 -29 -30 0
32 -31 5 0
32 -31 6 0
-32 31 5 0
-32 31 6 0
32 31 -5 -6 0
-32 -31 -5 -6 0
33 5 -6 0
33 -5 6 0
-33 5 6 0
-33 -5 -6 0
34 35 -32 0
34 -32 33 0
-34 35 32 0
-34 32 33 0
34 -32 -5 0
-34 32 -5 0
34 -35 32 5 -33 0
-34 -35 -32 5 -33 0
35 -5 33 0
-35 5 33 0
-36 33 0
35 -36 -5 0
-35 -36 5 0
35 36 5 -33 0
-35 36 -5 -33 0
-37 33 0
35 -37 5 0
-35 -37 -5 0
35 37 -5 -33 0
-35 37 5 -33 0
38 -34 35 0
38 -34 33 0
-38 34 35 0
-38 34 33 0
38 34 -35 -33 0
-38 -34 -35 -33 0
39 35 -33 0
39 -35 33 0
-39 35 33 0
-39 -35 -33 0
40 -38 7 0
40 -38 8 0
-40 38 7 0
-40 38 8 0
40 38 -7 -8 0
-40 -38 -7 -8 0
41 7 -8 0
41 -7 8 0
-41 7 8 0
-41 -7 -8 0
42 43 -40 0
42 -40 41 0
-42 43 40 0
-42 40 41 0
42 -40 -7 0
-42 40 -7 0
42 -43 40 7 -41 0
-42 -43 -40 7 -41 0
43 -7 41 0
-43 7 41 0
-44 41 0
43 -44 -7 0
-43 -44 7 0
43 44 7 -41 0
-43 44 -7 -41 0
-45 41 0
43 -45 7 0
-43 -45 -7 0
43 45 -7 -41 0
-43 45 7 -41 0
46 -42 43 0
46 -42 41 0
-46 42 43 0
-46 42 41 0
46 42 -43 -41 0
-46 -42 -43 -41 0
47 43 -41 0
47 -43 41 0
-47 43 41 0
-47 -43 -41 0
48 46 -47 0
48 -46 47 0
-48 46 47 0
-48 -46 -47 0
49 -48 9 0
49 -48 10 0
-49 48 9 0
-49 48 10 0
49 48 -9 -10 0
-49 -48 -9 -10 0
50 9 -10 0
50 -9 10 0
-50 9 10 0
-50 -9 -10 0
51 52 -49 0
51 -49 50 0
-51 52 49 0
-51 49 50 0
51 -49 -9 0
-51 49 -9 0
51 -52 49 9 -50 0
-51 -52 -49 9 -50 0
52 -9 50 0
-52 9 50 0
-53 50 0
52 -53 -9 0
-52 -53 9 0
52 53 9 -50 0
-52 53 -9 -50 0
-54 50 0
52 -54 9 0
-52 -54 -9 0
52 54 -9 -50 0
-52 54 9 -50 0
55 -51 52 0
55 -51 50 0
-55 51 52 0
-55 51 50 0
55 51 -52 -50 0
-55 -51 -52 -50 0
56 52 -50 0
56 -52 50 0
-56 52 50 0
-56 -52 -50 0
57 55 -12 0
57 -55 12 0
-57 55 12 0
-57 -55 -12 0
58 -57 11 0
58 -57 12 0
-58 57 11 0
-58 57 12 0
58 57 -11 -12 0
-58 -57 -11 -12 0
59 11 -12 0
59 -11 12 0
-59 11 12 0
-59 -11 -12 0
60 61 -58 0
60 -58 59 0
-60 61 58 0
-60 58 59 0
60 -58 -11 0
-60 58 -11 0
60 -61 58 11 -59 0
-60 -61 -58 11 -59 0
61 -11 59 0
-61 11 59 0
-62 59 0
61 -62 -11 0
-61 -62 11 0
61 62 11 -59 0
-61 62 -11 -59 0
-63 59 0
61 -63 11 0
-61 -63 -11 0
61 63 -11 -59 0
-61 63 11 -59 0
64 -60 61 0
64 -60 59 0
-64 60 61 0
-64 60 59 0
64 60 -61 -59 0
-64 -60 -61 -59 0
65 61 -59 0
65 -61 59 0
-65 61 59 0
-65 -61 -59 0
66 -64 17 0
66 -64 65 0
-66 64 17 0
-66 64 65 0
66 -64 61 -21 0
66 -64 -61 21 0
-66 64 61 -21 0
-66 64 -61 21 0
66 64 -17 61 21 -65 0
66 64 -17 -61 -21 -65 0
-66 -64 -17 61 21 -65 0
-66 -64 -17 -61 -21 -65 0
68 17 -61 0
68 -17 61 0
-68 17 61 0
-68 -17 -61 0
67 21 -65 0
67 -21 65 0
-67 21 65 0
-67 -21 -65 0
69 66 -67 0
69 -66 67 0
-69 66 67 0
-69 -66 -67 0
70 -69 17 0
70 -69 67 0
-70 69 17 0
-70 69 67 0
70 69 -17 -67 0
-70 -69 -17 -67 0
71 17 -67 0
71 -17 67 0
-71 17 67 0
-71 -17 -67 0
72 73 -70 0
72 -70 71 0
-72 73 70 0
-72 70 71 0
72 -70 -17 0
-72 70 -17 0
72 -73 70 17 -71 0
-72 -73 -70 17 -71 0
73 -17 71 0
-73 17 71 0
-74 71 0
73 -74 -17 0
-73 -74 17 0
73 74 17 -71 0
-73 74 -17 -71 0
-75 71 0
73 -75 17 0
-73 -75 -17 0
73 75 -17 -71 0
-73 75 17 -71 0
76 -72 73 0
76 -72 71 0
-76 72 73 0
-76 72 71 0
76 72 -73 -71 0
-76 -72 -73 -71 0
77 73 -71 0
77 -73 71 0
-77 73 71 0
-77 -73 -71 0
78 -76 26 0
78 -76 65 0
-78 76 26 0
-78 76 65 0
78 -76 68 -30 0
78 -76 -68 30 0
-78 76 68 -30 0
-78 76 -68 30 0
78 76 -26 68 30 -65 0
78 76 -26 -68 -30 -65 0
-78 -76 -26 68 30 -65 0
-78 -76 -26 -68 -30 -65 0
80 26 -68 0
80 -26 68 0
-80 26 68 0
-80 -26 -68 0
79 30 -65 0
79 -30 65 0
-79 30 65 0
-79 -30 -65 0
81 78 -79 0
81 -78 79 0
-81 78 79 0
-81 -78 -79 0
82 -81 26 0
82 -81 79 0
-82 81 26 0
-82 81 79 0
82 81 -26 -79 0
-82 -81 -26 -79 0
83 26 -79 0
83 -26 79 0
-83 26 79 0
-83 -26 -79 0
84 85 -82 0
84 -82 83 0
-84 85 82 0
-84 82 83 0
84 -82 -26 0
-84 82 -26 0
84 -85 82 26 -83 0
-84 -85 -82 26 -83 0
85 -26 83 0
-85 26 83 0
-86 83 0
85 -86 -26 0
-85 -86 26 0
85 86 26 -83 0
-85 86 -26 -83 0
-87 83 0
85 -87 26 0
-85 -87 -26 0
85 87 -26 -83 0
-85 87 26 -83 0
88 -84 85 0
88 -84 83 0
-88 84 85 0
-88 84 83 0
88 84 -85 -83 0
-88 -84 -85 -83 0
89 85 -83 0
89 -85 83 0
-89 85 83 0
-89 -85 -83 0
90 -88 35 0
90 -88 65 0
-90 88 35 0
-90 88 65 0
90 -88 80 -39 0
90 -88 -80 39 0
-90 88 80 -39 0
-90 88 -80 39 0
90 88 -35 80 39 -65 0
90 88 -35 -80 -39 -65 0
-90 -88 -35 80 39 -65 0
-90 -88 -35 -80 -39 -65 0
92 35 -80 0
92 -35 80 0
-92 35 80 0
-92 -35 -80 0
91 39 -65 0
91 -39 65 0
-91 39 65 0
-91 -39 -65 0
93 -90 35 0
93 -90 91 0
-93 90 35 0
-93 90 91 0
93 90 -35 -91 0
-93 -90 -35 -91 0
94 35 -91 0
94 -35 91 0
-94 35 91 0
-94 -35 -91 0
95 96 -93 0
95 -93 94 0
-95 96 93 0
-95 93 94 0
95 -93 -35 0
-95 93 -35 0
95 -96 93 35 -94 0
-95 -96 -93 35 -94 0
96 -35 94 0
-96 35 94 0
-97 94 0
96 -97 -35 0
-96 -97 35 0
96 97 35 -94 0
-96 97 -35 -94 0
-98 94 0
96 -98 35 0
-96 -98 -35 0
96 98 -35 -94 0
-96 98 35 -94 0
99 -95 96 0
99 -95 94 0
-99 95 96 0
-99 95 94 0
99 95 -96 -94 0
-99 -95 -96 -94 0
100 96 -94 0
100 -96 94 0
-100 96 94 0
-100 -96 -94 0
101 -99 43 0
101 -99 65 0
-101 99 43 0
-101 99 65 0
101 -99 92 -47 0
101 -99 -92 47 0
-101 99 92 -47 0
-101 99 -92 47 0
101 99 -43 92 47 -65 0
101 99 -43 -92 -47 -65 0
-101 -99 -43 92 47 -65 0
-101 -99 -43 -92 -47 -65 0
103 43 -92 0
103 -43 92 0
-103 43 92 0
-103 -43 -92 0
102 47 -65 0
102 -47 65 0
-102 47 65 0
-102 -47 -65 0
104 101 -102 0
104 -101 102 0
-104 101 102 0
-104 -101 -102 0
105 -104 43 0
105 -104 102 0
-105 104 43 0
-105 104 102 0
105 104 -43 -102 0
-105 -104 -43 -102 0
106 43 -102 0
106 -43 102 0
-106 43 102 0
-106 -43 -102 0
107 108 -105 0
107 -105 106 0
-107 108 105 0
-107 105 106 0
107 -105 -43 0
-107 105 -43 0
107 -108 105 43 -106 0
-107 -108 -105 43 -106 0
108 -43 106 0
-108 43 106 0
-109 106 0
108 -109 -43 0
-108 -109 43 0
108 109 43 -106 0
-108 109 -43 -106 0
-110 106 0
108 -110 43 0
-108 -110 -43 0
108 110 -43 -106 0
-108 110 43 -106 0
111 -107 108 0
111 -107 106 0
-111 107 108 0
-111 107 106 0
111 107 -108 -106 0
-111 -107 -108 -106 0
112 108 -106 0
112 -108 106 0
-112 108 106 0
-112 -108 -106 0
113 -111 52 0
113 -111 65 0
-113 111 52 0
-113 111 65 0
113 -111 103 -56 0
113 -111 -103 56 0
-113 111 103 -56 0
-113 111 -103 56 0
113 111 -52 103 56 -65 0
113 111 -52 -103 -56 -65 0
-113 -111 -52 103 56 -65 0
-113 -111 -52 -103 -56 -65 0
115 52 -103 0
115 -52 103 0
-115 52 103 0
-115 -52 -103 0
114 56 -65 0
114 -56 65 0
-114 56 65 0
-114 -56 -65 0
116 -113 52 0
116 -113 114 0
-116 113 52 0
-116 113 114 0
116 113 -52 -114 0
-116 -113 -52 -114 0
117 52 -114 0
117 -52 114 0
-117 52 114 0
-117 -52 -114 0
118 119 -116 0
118 -116 117 0
-118 119 116 0
-118 116 117 0
118 -116 -52 0
-118 116 -52 0
118 -119 116 52 -117 0
-118 -119 -116 52 -117 0
119 -52 117 0
-119 52 117 0
-120 117 0
119 -120 -52 0
-119 -120 52 0
119 120 52 -117 0
-119 120 -52 -117 0
-121 117 0
119 -121 52 0
-119 -121 -52 0
119 121 -52 -117 0
-119 121 52 -117 0
122 -118 119 0
122 -118 117 0
-122 118 119 0
-122 118 117 0
122 118 -119 -117 0
-122 -118 -119 -117 0
123 119 -117 0
123 -119 117 0
-123 119 117 0
-123 -119 -117 0
